3
30
8271
[[921,350,705,264,205,687,626,186,230,783,872,819,899,141,366, 73,284,459,365,103,904,993,991,554,620,723,590,927,554, 59],
 [995,827,860, 98,865,427,942, 54,230,327,938,612,580, 85,238,815,613,973,788,881,806,700,970, 32,446,636,718,823,944,428],
 [806,357,352,860,819,371,212,148,477,294,696,633,977, 82,538,272,481,807,756,844,544,870,958,980,336,203,  6, 35,305,102]]
[909,736,116,649,871,256,836,310,890,613,473,268,535, 90,518,690, 42,863,960,375,856, 66,981,791,833,839,934, 19, 44,180]